37
Fe(II) porphine, idealised D4h MODEL geometry: Fe-N 2.000, N-Ca 1.379, Ca-Cb 1.437, Cb-Cb 1.350, Ca-Cm 1.383, C-H 1.080 A, Ca-N-Ca 105.5 deg. Built from build_ni_porphine.py with R_NI_N=2.000 and the metal relabelled. NOT the geometry that produced legacy/FePorph_*_Window.dat, which is not in this repository -- this is a model of the right size, not a reproduction.
Fe      0.00000000     0.00000000     0.00000000
N       2.00000000     0.00000000     0.00000000
C       2.83470041     1.09768676     0.00000000
C       2.83470041    -1.09768676     0.00000000
C       4.20812857     0.67500000     0.00000000
C       4.20812857    -0.67500000     0.00000000
H       5.07688948     1.31660305     0.00000000
H       5.07688948    -1.31660305     0.00000000
C       2.41568263     2.41568263     0.00000000
H       3.17935795     3.17935795     0.00000000
N      -0.00000000     2.00000000     0.00000000
C      -1.09768676     2.83470041     0.00000000
C       1.09768676     2.83470041     0.00000000
C      -0.67500000     4.20812857     0.00000000
C       0.67500000     4.20812857     0.00000000
H      -1.31660305     5.07688948     0.00000000
H       1.31660305     5.07688948     0.00000000
C      -2.41568263     2.41568263     0.00000000
H      -3.17935795     3.17935795     0.00000000
N      -2.00000000    -0.00000000     0.00000000
C      -2.83470041    -1.09768676     0.00000000
C      -2.83470041     1.09768676     0.00000000
C      -4.20812857    -0.67500000     0.00000000
C      -4.20812857     0.67500000     0.00000000
H      -5.07688948    -1.31660305     0.00000000
H      -5.07688948     1.31660305     0.00000000
C      -2.41568263    -2.41568263     0.00000000
H      -3.17935795    -3.17935795     0.00000000
N       0.00000000    -2.00000000     0.00000000
C       1.09768676    -2.83470041     0.00000000
C      -1.09768676    -2.83470041     0.00000000
C       0.67500000    -4.20812857     0.00000000
C      -0.67500000    -4.20812857     0.00000000
H       1.31660305    -5.07688948     0.00000000
H      -1.31660305    -5.07688948     0.00000000
C       2.41568263    -2.41568263     0.00000000
H       3.17935795    -3.17935795     0.00000000
