37
Ni(II) porphine, idealised D4h model geometry: Ni-N 1.95, N-Ca 1.379, Ca-Cb 1.437, Cb-Cb 1.35, Ca-Cm 1.383, C-H 1.08 A, Ca-N-Ca 105.5 deg. Built by benchmarks/geometries/build_ni_porphine.py -- not optimised.
Ni      0.00000000     0.00000000     0.00000000
N       1.95000000     0.00000000     0.00000000
C       2.78470041     1.09768676     0.00000000
C       2.78470041    -1.09768676     0.00000000
C       4.15812857     0.67500000     0.00000000
C       4.15812857    -0.67500000     0.00000000
H       5.02688948     1.31660305     0.00000000
H       5.02688948    -1.31660305     0.00000000
C       2.43600743     2.43600743     0.00000000
H       3.19968275     3.19968275     0.00000000
N      -0.00000000     1.95000000     0.00000000
C      -1.09768676     2.78470041     0.00000000
C       1.09768676     2.78470041     0.00000000
C      -0.67500000     4.15812857     0.00000000
C       0.67500000     4.15812857     0.00000000
H      -1.31660305     5.02688948     0.00000000
H       1.31660305     5.02688948     0.00000000
C      -2.43600743     2.43600743     0.00000000
H      -3.19968275     3.19968275     0.00000000
N      -1.95000000    -0.00000000     0.00000000
C      -2.78470041    -1.09768676     0.00000000
C      -2.78470041     1.09768676     0.00000000
C      -4.15812857    -0.67500000     0.00000000
C      -4.15812857     0.67500000     0.00000000
H      -5.02688948    -1.31660305     0.00000000
H      -5.02688948     1.31660305     0.00000000
C      -2.43600743    -2.43600743     0.00000000
H      -3.19968275    -3.19968275     0.00000000
N       0.00000000    -1.95000000     0.00000000
C       1.09768676    -2.78470041     0.00000000
C      -1.09768676    -2.78470041     0.00000000
C       0.67500000    -4.15812857     0.00000000
C      -0.67500000    -4.15812857     0.00000000
H       1.31660305    -5.02688948     0.00000000
H      -1.31660305    -5.02688948     0.00000000
C       2.43600743    -2.43600743     0.00000000
H       3.19968275    -3.19968275     0.00000000
